; benchmark generated from python API
(set-info :status unknown)
(declare-fun DISJ_W_S1_R_S1 () Bool)
(declare-fun DISJ_W_S2_R_S2 () Bool)
(declare-fun DISJ_W_S2_R_S1 () Bool)
(declare-fun W_S2_V2 () Bool)
(declare-fun W_S2_V1 () Bool)
(declare-fun W_S2_V3 () Bool)
(declare-fun W_S2_V5 () Bool)
(declare-fun W_S1_V1 () Bool)
(declare-fun W_S1_V2 () Bool)
(declare-fun W_S1_V5 () Bool)
(declare-fun W_S1_V4 () Bool)
(declare-fun R_S1_V1 () Bool)
(declare-fun R_S1_V3 () Bool)
(declare-fun R_S1_V2 () Bool)
(declare-fun R_S1_V5 () Bool)
(declare-fun R_S1_V4 () Bool)
(declare-fun R_S2_V1 () Bool)
(declare-fun R_S2_V3 () Bool)
(declare-fun R_S2_V2 () Bool)
(declare-fun R_S2_V5 () Bool)
(declare-fun R_S2_V4 () Bool)
(declare-fun DISJ_W_S1_W_S2 () Bool)
(declare-fun DISJ_W_S1_R_S2 () Bool)
(declare-fun W_S2_V4 () Bool)
(declare-fun W_S1_V3 () Bool)
(assert
 (let (($x2169 (not (and (not W_S2_V2) DISJ_W_S2_R_S1 DISJ_W_S2_R_S2 DISJ_W_S1_R_S1))))
 (let (($x249 (forall ((V4_0 Int) )(forall ((V5_0 Int) )(forall ((V2_0 Int) )(forall ((V3_0 Int) )(forall ((V1_0 Int) )(forall ((MW_S1_V4 Bool) )(forall ((MW_S1_V5 Bool) )(forall ((MW_S1_V2 Bool) )(forall ((MW_S1_V3 Bool) )(forall ((MW_S1_V1 Bool) )(forall ((MW_S2_V4 Bool) )(forall ((MW_S2_V5 Bool) )(forall ((MW_S2_V2 Bool) )(forall ((MW_S2_V3 Bool) )(forall ((MW_S2_V1 Bool) )(forall ((S1_V4_!160 Int) )(forall ((S1_V4_!170 Int) )(forall ((S1_V4_!180 Int) )(forall ((S2_V4_!165 Int) )(forall ((S2_V4_!175 Int) )(forall ((S2_V4_!185 Int) )(forall ((S2_V5_!166 Int) )(forall ((S2_V5_!176 Int) )(forall ((S2_V5_!186 Int) )(forall ((S1_V1_!164 Int) )(forall ((S1_V1_!174 Int) )(forall ((S1_V1_!184 Int) )(forall ((S1_V3_!163 Int) )(forall ((S1_V3_!173 Int) )(forall ((S1_V3_!183 Int) )(forall ((S1_V2_!162 Int) )(forall ((S1_V2_!172 Int) )(forall ((S1_V2_!182 Int) )(forall ((S2_V1_!169 Int) )(forall ((S2_V1_!179 Int) )(forall ((S2_V1_!189 Int) )(forall ((S2_V2_!167 Int) )(forall ((S2_V2_!177 Int) )(forall ((S2_V2_!187 Int) )(forall ((S2_V3_!168 Int) )(forall ((S2_V3_!178 Int) )(forall ((S2_V3_!188 Int) )(forall ((S1_V5_!161 Int) )(forall ((S1_V5_!171 Int) )(forall ((S1_V5_!181 Int) )(let ((?x24 (ite MW_S1_V1 S1_V1_!174 V1_0)))
 (let ((?x3609 (ite MW_S2_V1 S2_V1_!179 ?x24)))
 (let ((?x552 (+ 1 ?x3609)))
 (let ((?x1298 (ite MW_S1_V1 S1_V1_!184 ?x552)))
 (let ((?x2351 (ite MW_S1_V1 S1_V1_!164 V1_0)))
 (let ((?x2625 (ite MW_S2_V1 S2_V1_!169 ?x2351)))
 (let (($x1961 (= (ite MW_S2_V3 S2_V3_!168 (ite MW_S1_V3 S1_V3_!163 V3_0)) (ite MW_S2_V3 S2_V3_!188 (ite MW_S1_V3 S1_V3_!183 (ite MW_S2_V3 S2_V3_!178 (ite MW_S1_V3 S1_V3_!173 V3_0)))))))
 (let ((?x1693 (ite MW_S1_V2 S1_V2_!162 V2_0)))
 (let ((?x5781 (ite MW_S2_V2 S2_V2_!167 ?x1693)))
 (let (($x1724 (= ?x5781 (ite MW_S2_V2 S2_V2_!187 (ite MW_S1_V2 S1_V2_!182 (ite MW_S2_V2 S2_V2_!177 (ite MW_S1_V2 S1_V2_!172 V2_0)))))))
 (let (($x1183 (= (ite MW_S2_V5 S2_V5_!166 (ite MW_S1_V5 S1_V5_!161 V5_0)) (ite MW_S2_V5 S2_V5_!186 (ite MW_S1_V5 S1_V5_!181 (ite MW_S2_V5 S2_V5_!176 (ite MW_S1_V5 S1_V5_!171 V5_0)))))))
 (let (($x358 (= (ite MW_S2_V4 S2_V4_!165 (ite MW_S1_V4 S1_V4_!160 V4_0)) (ite MW_S2_V4 S2_V4_!185 (ite MW_S1_V4 S1_V4_!180 (ite MW_S2_V4 S2_V4_!175 (ite MW_S1_V4 S1_V4_!170 V4_0)))))))
 (let (($x3751 (>= ?x1298 (+ (- 1) (ite MW_S1_V2 S1_V2_!182 (ite MW_S2_V2 S2_V2_!177 (ite MW_S1_V2 S1_V2_!172 V2_0)))))))
 (let (($x2316 (and (not (<= V2_0 V1_0)) (>= ?x2625 (+ (- 1) ?x5781)) (not (<= (ite MW_S1_V2 S1_V2_!172 V2_0) (+ 1 ?x24))) $x3751)))
 (let (($x3980 (= S1_V5_!181 S1_V5_!171)))
 (let (($x3206 (and (or (not R_S1_V4) (= (ite MW_S2_V4 S2_V4_!175 (ite MW_S1_V4 S1_V4_!170 V4_0)) V4_0)) (or (not R_S1_V5) (= (ite MW_S2_V5 S2_V5_!176 (ite MW_S1_V5 S1_V5_!171 V5_0)) V5_0)) (or (not R_S1_V2) (= (ite MW_S2_V2 S2_V2_!177 (ite MW_S1_V2 S1_V2_!172 V2_0)) V2_0)) (or (not R_S1_V3) (= (ite MW_S2_V3 S2_V3_!178 (ite MW_S1_V3 S1_V3_!173 V3_0)) V3_0)) (or (not R_S1_V1) (= ?x3609 (+ (- 1) V1_0))))))
 (let (($x2711 (not $x3206)))
 (let (($x5837 (and (or (not R_S1_V4) (= V4_0 (ite MW_S2_V4 S2_V4_!175 (ite MW_S1_V4 S1_V4_!170 V4_0)))) (or (not R_S1_V5) (= V5_0 (ite MW_S2_V5 S2_V5_!176 (ite MW_S1_V5 S1_V5_!171 V5_0)))) (or (not R_S1_V2) (= V2_0 (ite MW_S2_V2 S2_V2_!177 (ite MW_S1_V2 S1_V2_!172 V2_0)))) (or (not R_S1_V3) (= V3_0 (ite MW_S2_V3 S2_V3_!178 (ite MW_S1_V3 S1_V3_!173 V3_0)))) (or (not R_S1_V1) (= V1_0 ?x552)))))
 (let (($x714 (not $x5837)))
 (let ((?x3177 (ite MW_S1_V3 S1_V3_!163 V3_0)))
 (let ((?x4249 (ite MW_S1_V3 S1_V3_!173 V3_0)))
 (let ((?x5116 (ite MW_S2_V3 S2_V3_!178 ?x4249)))
 (let ((?x588 (ite MW_S1_V3 S1_V3_!183 ?x5116)))
 (let (($x885 (not R_S2_V3)))
 (let (($x1477 (not R_S2_V2)))
 (let (($x4774 (or $x1477 (= (ite MW_S1_V2 S1_V2_!182 (ite MW_S2_V2 S2_V2_!177 (ite MW_S1_V2 S1_V2_!172 V2_0))) ?x1693))))
 (let ((?x3415 (ite MW_S1_V5 S1_V5_!161 V5_0)))
 (let ((?x1531 (ite MW_S1_V5 S1_V5_!171 V5_0)))
 (let ((?x3178 (ite MW_S2_V5 S2_V5_!176 ?x1531)))
 (let ((?x2685 (ite MW_S1_V5 S1_V5_!181 ?x3178)))
 (let (($x5416 (not R_S2_V5)))
 (let ((?x5072 (ite MW_S1_V4 S1_V4_!160 V4_0)))
 (let ((?x5749 (ite MW_S1_V4 S1_V4_!170 V4_0)))
 (let ((?x4382 (ite MW_S2_V4 S2_V4_!175 ?x5749)))
 (let ((?x3323 (ite MW_S1_V4 S1_V4_!180 ?x4382)))
 (let (($x5767 (not R_S2_V4)))
 (let (($x3475 (and (or $x5767 (= ?x3323 ?x5072)) (or $x5416 (= ?x2685 ?x3415)) $x4774 (or $x885 (= ?x588 ?x3177)) (or (not R_S2_V1) (= ?x1298 ?x2351)))))
 (let (($x211 (not $x3475)))
 (let ((?x5908 (ite MW_S1_V2 S1_V2_!172 V2_0)))
 (let ((?x3107 (ite MW_S2_V2 S2_V2_!177 ?x5908)))
 (let ((?x5783 (ite MW_S1_V2 S1_V2_!182 ?x3107)))
 (let (($x3131 (and (or $x5767 (= ?x5749 ?x3323)) (or $x5416 (= ?x1531 ?x2685)) (or $x1477 (= ?x5908 ?x5783)) (or $x885 (= ?x4249 ?x588)) (or (not R_S2_V1) (= ?x24 ?x1298)))))
 (let (($x2756 (not $x3131)))
 (let (($x5744 (= S2_V3_!178 S2_V3_!168)))
 (let (($x3156 (and (or $x5767 (= ?x5749 ?x5072)) (or $x5416 (= ?x1531 ?x3415)) (or $x1477 (= ?x5908 ?x1693)) (or $x885 (= ?x4249 ?x3177)) (or (not R_S2_V1) (= ?x24 ?x2351)))))
 (let (($x1601 (not $x3156)))
 (let (($x4670 (= S2_V2_!187 S2_V2_!177)))
 (let (($x1191 (and (or $x5767 (= ?x3323 ?x5749)) (or $x5416 (= ?x2685 ?x1531)) (or $x1477 (= ?x5783 ?x5908)) (or $x885 (= ?x588 ?x4249)) (or (not R_S2_V1) (= ?x1298 ?x24)))))
 (let (($x3380 (not $x1191)))
 (let (($x2195 (and (or $x5767 (= ?x5072 ?x3323)) (or $x5416 (= ?x3415 ?x2685)) (or $x1477 (= ?x1693 ?x5783)) (or $x885 (= ?x3177 ?x588)) (or (not R_S2_V1) (= ?x2351 ?x1298)))))
 (let (($x5108 (not $x2195)))
 (let (($x2246 (= S2_V1_!169 S2_V1_!179)))
 (let (($x2271 (and (or $x5767 (= ?x5072 ?x5749)) (or $x5416 (= ?x3415 ?x1531)) (or $x1477 (= ?x1693 ?x5908)) (or $x885 (= ?x3177 ?x4249)) (or (not R_S2_V1) (= ?x2351 ?x24)))))
 (let (($x89 (not $x2271)))
 (let (($x2938 (= S1_V2_!162 S1_V2_!172)))
 (let (($x1330 (= S1_V3_!163 S1_V3_!173)))
 (let (($x2861 (and (= S1_V4_!160 S1_V4_!170) (or $x714 (= S1_V4_!160 S1_V4_!180)) (or $x714 (= S1_V4_!170 S1_V4_!180)) (or $x1601 (= S2_V4_!175 S2_V4_!165)) (or $x2756 (= S2_V4_!175 S2_V4_!185)) (or $x211 (= S2_V4_!185 S2_V4_!165)) (or $x89 (= S2_V5_!166 S2_V5_!176)) (or $x5108 (= S2_V5_!166 S2_V5_!186)) (or $x3380 (= S2_V5_!186 S2_V5_!176)) (= S1_V1_!164 S1_V1_!174) (or $x2711 (= S1_V1_!184 S1_V1_!164)) (or $x2711 (= S1_V1_!184 S1_V1_!174)) $x1330 (or $x714 (= S1_V3_!163 S1_V3_!183)) (or $x714 (= S1_V3_!173 S1_V3_!183)) $x2938 (or $x714 (= S1_V2_!162 S1_V2_!182)) (or $x714 (= S1_V2_!172 S1_V2_!182)) (or $x89 $x2246) (or $x5108 (= S2_V1_!169 S2_V1_!189)) (or $x3380 (= S2_V1_!189 S2_V1_!179)) (or $x1601 (= S2_V2_!177 S2_V2_!167)) (or $x211 (= S2_V2_!187 S2_V2_!167)) (or $x3380 $x4670) (or $x1601 $x5744) (or $x2756 (= S2_V3_!178 S2_V3_!188)) (or $x211 (= S2_V3_!188 S2_V3_!168)) (= S1_V5_!161 S1_V5_!171) (or $x714 (= S1_V5_!161 S1_V5_!181)) (or $x2711 $x3980) (or (not MW_S1_V4) W_S1_V4) (or (not MW_S1_V5) W_S1_V5) (or (not MW_S1_V2) W_S1_V2) (or (not MW_S1_V1) W_S1_V1) (or (not MW_S2_V5) W_S2_V5) (or (not MW_S2_V2) W_S2_V2) (or (not MW_S2_V3) W_S2_V3) (or (not MW_S2_V1) W_S2_V1))))
 (or (not $x2861) (not $x2316) (and $x358 $x1183 $x1724 $x1961 (= ?x2625 (ite MW_S2_V1 S2_V1_!189 ?x1298))))))))))))))))))))))))))))))))))))))))))))))))))))))))))))))
 )
 )
 )
 )
 )
 )
 )
 )
 )
 )
 )
 )
 )
 )
 )
 )
 )
 )
 )
 )
 )
 )
 )
 )
 )
 )
 )
 )
 )
 )
 )
 )
 )
 )
 )
 )
 )
 )
 )
 )
 )
 )
 )
 )
 ))
 (let (($x1946 (and W_S2_V1 R_S2_V1)))
 (let (($x2210 (and W_S2_V3 R_S2_V3)))
 (let (($x1127 (and W_S2_V2 R_S2_V2)))
 (let (($x215 (and W_S2_V5 R_S2_V5)))
 (let (($x1859 (= DISJ_W_S2_R_S2 (not (or R_S2_V4 $x215 $x1127 $x2210 $x1946)))))
 (let (($x2283 (and W_S2_V1 R_S1_V1)))
 (let (($x3012 (and W_S2_V3 R_S1_V3)))
 (let (($x120 (and W_S2_V2 R_S1_V2)))
 (let (($x3007 (and W_S2_V5 R_S1_V5)))
 (let (($x1404 (= DISJ_W_S2_R_S1 (not (or R_S1_V4 $x3007 $x120 $x3012 $x2283)))))
 (let (($x2200 (and W_S1_V1 W_S2_V1)))
 (let (($x2394 (and W_S1_V2 W_S2_V2)))
 (let (($x5969 (and W_S1_V5 W_S2_V5)))
 (let (($x5732 (= DISJ_W_S1_W_S2 (not (or W_S1_V4 $x5969 $x2394 W_S2_V3 $x2200)))))
 (let (($x996 (and W_S1_V1 R_S2_V1)))
 (let (($x864 (and W_S1_V2 R_S2_V2)))
 (let (($x5239 (and W_S1_V5 R_S2_V5)))
 (let (($x3166 (and W_S1_V4 R_S2_V4)))
 (let (($x3162 (= DISJ_W_S1_R_S2 (not (or $x3166 $x5239 $x864 R_S2_V3 $x996)))))
 (let (($x1777 (and W_S1_V1 R_S1_V1)))
 (let (($x5006 (and W_S1_V2 R_S1_V2)))
 (let (($x1614 (and W_S1_V5 R_S1_V5)))
 (let (($x197 (and W_S1_V4 R_S1_V4)))
 (let (($x783 (= DISJ_W_S1_R_S1 (not (or $x197 $x1614 $x5006 R_S1_V3 $x1777)))))
 (and (and W_S1_V3 W_S2_V4 $x783 $x3162 $x5732 $x1404 $x1859 $x249) $x2169))))))))))))))))))))))))))))
(check-sat)
